\ENCODING=ISO-8859-1
\Problem name: test_problem

Minimize
 obj: - x1 - 2 x2 - 3 x3 - x4
Subject To
 c1: - x1 + x2 + x3 + 10 x4 <= 20
 c2: x1 - 3 x2 + x3 <= 30
 c3: - x1 <= 0
 c4: - x2 <= 0
 c5: - x3 <= 0
 c6: - x4 <= -2
 c7: x1 <= 40
 c8: x4 <= 3
 c9: x2 - 3.5 x4  = 0
Bounds
      x1 Free
      x2 Free
      x3 Free
      x4 Free
Generals
 x4 
End
